data/lp_files/q3/83_0.lp
\ Model foo
\ LP format - for model browsing. Use MPS format to capture full model detail.
Minimize
  z
Subject To
 allocateEach[1]: x[1,1] + x[2,1] + x[3,1] + x[4,1] + x[5,1] = 1
 allocateEach[2]: x[1,2] + x[2,2] + x[3,2] + x[4,2] + x[5,2] = 1
 allocateEach[3]: x[1,3] + x[2,3] + x[3,3] + x[4,3] + x[5,3] = 1
 allocateAllCash: cashProportion[1] + cashProportion[2] + cashProportion[3]
   + cashProportion[4] + cashProportion[5] = 1
 findWorstP[1,2]: z + 0.0265830187676112 cashProportion[1]
   - 0.0265830187676112 cashProportion[2] + 0.4024669041416342 x[1,1]
   + 0.1225477165186878 x[1,2] + 0.4484023605720665 x[1,3]
   - 0.4024669041416342 x[2,1] - 0.1225477165186878 x[2,2]
   - 0.4484023605720665 x[2,3] >= 0
 findWorstP[1,3]: z + 0.0265830187676112 cashProportion[1]
   - 0.0265830187676112 cashProportion[3] + 0.4024669041416342 x[1,1]
   + 0.1225477165186878 x[1,2] + 0.4484023605720665 x[1,3]
   - 0.4024669041416342 x[3,1] - 0.1225477165186878 x[3,2]
   - 0.4484023605720665 x[3,3] >= 0
 findWorstP[1,4]: z + 0.0265830187676112 cashProportion[1]
   - 0.0265830187676112 cashProportion[4] + 0.4024669041416342 x[1,1]
   + 0.1225477165186878 x[1,2] + 0.4484023605720665 x[1,3]
   - 0.4024669041416342 x[4,1] - 0.1225477165186878 x[4,2]
   - 0.4484023605720665 x[4,3] >= 0
 findWorstP[1,5]: z + 0.0265830187676112 cashProportion[1]
   - 0.0265830187676112 cashProportion[5] + 0.4024669041416342 x[1,1]
   + 0.1225477165186878 x[1,2] + 0.4484023605720665 x[1,3]
   - 0.4024669041416342 x[5,1] - 0.1225477165186878 x[5,2]
   - 0.4484023605720665 x[5,3] >= 0
 findWorstP[2,1]: z - 0.0384497077822209 cashProportion[1]
   + 0.0384497077822209 cashProportion[2] - 0.1388034450938173 x[1,1]
   - 0.280452168563519 x[1,2] - 0.542294678560443 x[1,3]
   + 0.1388034450938173 x[2,1] + 0.280452168563519 x[2,2]
   + 0.542294678560443 x[2,3] >= 0
 findWorstP[2,3]: z + 0.0384497077822209 cashProportion[2]
   - 0.0384497077822209 cashProportion[3] + 0.1388034450938173 x[2,1]
   + 0.280452168563519 x[2,2] + 0.542294678560443 x[2,3]
   - 0.1388034450938173 x[3,1] - 0.280452168563519 x[3,2]
   - 0.542294678560443 x[3,3] >= 0
 findWorstP[2,4]: z + 0.0384497077822209 cashProportion[2]
   - 0.0384497077822209 cashProportion[4] + 0.1388034450938173 x[2,1]
   + 0.280452168563519 x[2,2] + 0.542294678560443 x[2,3]
   - 0.1388034450938173 x[4,1] - 0.280452168563519 x[4,2]
   - 0.542294678560443 x[4,3] >= 0
 findWorstP[2,5]: z + 0.0384497077822209 cashProportion[2]
   - 0.0384497077822209 cashProportion[5] + 0.1388034450938173 x[2,1]
   + 0.280452168563519 x[2,2] + 0.542294678560443 x[2,3]
   - 0.1388034450938173 x[5,1] - 0.280452168563519 x[5,2]
   - 0.542294678560443 x[5,3] >= 0
 findWorstP[3,1]: z - 0.0219202104340202 cashProportion[1]
   + 0.0219202104340202 cashProportion[3] - 0.3100394563787813 x[1,1]
   - 0.241253836036826 x[1,2] - 0.4267864971503728 x[1,3]
   + 0.3100394563787813 x[3,1] + 0.241253836036826 x[3,2]
   + 0.4267864971503728 x[3,3] >= 0
 findWorstP[3,2]: z - 0.0219202104340202 cashProportion[2]
   + 0.0219202104340202 cashProportion[3] - 0.3100394563787813 x[2,1]
   - 0.241253836036826 x[2,2] - 0.4267864971503728 x[2,3]
   + 0.3100394563787813 x[3,1] + 0.241253836036826 x[3,2]
   + 0.4267864971503728 x[3,3] >= 0
 findWorstP[3,4]: z + 0.0219202104340202 cashProportion[3]
   - 0.0219202104340202 cashProportion[4] + 0.3100394563787813 x[3,1]
   + 0.241253836036826 x[3,2] + 0.4267864971503728 x[3,3]
   - 0.3100394563787813 x[4,1] - 0.241253836036826 x[4,2]
   - 0.4267864971503728 x[4,3] >= 0
 findWorstP[3,5]: z + 0.0219202104340202 cashProportion[3]
   - 0.0219202104340202 cashProportion[5] + 0.3100394563787813 x[3,1]
   + 0.241253836036826 x[3,2] + 0.4267864971503728 x[3,3]
   - 0.3100394563787813 x[5,1] - 0.241253836036826 x[5,2]
   - 0.4267864971503728 x[5,3] >= 0
 findWorstP[4,1]: z - 0.0616979269496545 cashProportion[1]
   + 0.0616979269496545 cashProportion[4] - 0.5313425468904245 x[1,1]
   - 0.2191510365251728 x[1,2] - 0.1878084896347483 x[1,3]
   + 0.5313425468904245 x[4,1] + 0.2191510365251728 x[4,2]
   + 0.1878084896347483 x[4,3] >= 0
 findWorstP[4,2]: z - 0.0616979269496545 cashProportion[2]
   + 0.0616979269496545 cashProportion[4] - 0.5313425468904245 x[2,1]
   - 0.2191510365251728 x[2,2] - 0.1878084896347483 x[2,3]
   + 0.5313425468904245 x[4,1] + 0.2191510365251728 x[4,2]
   + 0.1878084896347483 x[4,3] >= 0
 findWorstP[4,3]: z - 0.0616979269496545 cashProportion[3]
   + 0.0616979269496545 cashProportion[4] - 0.5313425468904245 x[3,1]
   - 0.2191510365251728 x[3,2] - 0.1878084896347483 x[3,3]
   + 0.5313425468904245 x[4,1] + 0.2191510365251728 x[4,2]
   + 0.1878084896347483 x[4,3] >= 0
 findWorstP[4,5]: z + 0.0616979269496545 cashProportion[4]
   - 0.0616979269496545 cashProportion[5] + 0.5313425468904245 x[4,1]
   + 0.2191510365251728 x[4,2] + 0.1878084896347483 x[4,3]
   - 0.5313425468904245 x[5,1] - 0.2191510365251728 x[5,2]
   - 0.1878084896347483 x[5,3] >= 0
 findWorstP[5,1]: z - 0.0232861400894188 cashProportion[1]
   + 0.0232861400894188 cashProportion[5] - 0.2472522354694486 x[1,1]
   - 0.3980532786885246 x[1,2] - 0.3314083457526081 x[1,3]
   + 0.2472522354694486 x[5,1] + 0.3980532786885246 x[5,2]
   + 0.3314083457526081 x[5,3] >= 0
 findWorstP[5,2]: z - 0.0232861400894188 cashProportion[2]
   + 0.0232861400894188 cashProportion[5] - 0.2472522354694486 x[2,1]
   - 0.3980532786885246 x[2,2] - 0.3314083457526081 x[2,3]
   + 0.2472522354694486 x[5,1] + 0.3980532786885246 x[5,2]
   + 0.3314083457526081 x[5,3] >= 0
 findWorstP[5,3]: z - 0.0232861400894188 cashProportion[3]
   + 0.0232861400894188 cashProportion[5] - 0.2472522354694486 x[3,1]
   - 0.3980532786885246 x[3,2] - 0.3314083457526081 x[3,3]
   + 0.2472522354694486 x[5,1] + 0.3980532786885246 x[5,2]
   + 0.3314083457526081 x[5,3] >= 0
 findWorstP[5,4]: z - 0.0232861400894188 cashProportion[4]
   + 0.0232861400894188 cashProportion[5] - 0.2472522354694486 x[4,1]
   - 0.3980532786885246 x[4,2] - 0.3314083457526081 x[4,3]
   + 0.2472522354694486 x[5,1] + 0.3980532786885246 x[5,2]
   + 0.3314083457526081 x[5,3] >= 0
Bounds
 z <= 1
 -infinity <= cashProportion[1] <= 1
 -infinity <= cashProportion[2] <= 1
 -infinity <= cashProportion[3] <= 1
 -infinity <= cashProportion[4] <= 1
 -infinity <= cashProportion[5] <= 1
Binaries
 x[1,1] x[1,2] x[1,3] x[2,1] x[2,2] x[2,3] x[3,1] x[3,2] x[3,3] x[4,1]
 x[4,2] x[4,3] x[5,1] x[5,2] x[5,3]
End
