data/mps_files/pEFS/83_0.mps
NAME foo
ROWS
 N  OBJ
 E  allocateEach[1]
 E  allocateEach[2]
 E  allocateEach[3]
 E  allocateAllCash
 G  findWorstP[1,2]
 G  findWorstP[1,3]
 G  findWorstP[1,4]
 G  findWorstP[1,5]
 G  findWorstP[2,1]
 G  findWorstP[2,3]
 G  findWorstP[2,4]
 G  findWorstP[2,5]
 G  findWorstP[3,1]
 G  findWorstP[3,2]
 G  findWorstP[3,4]
 G  findWorstP[3,5]
 G  findWorstP[4,1]
 G  findWorstP[4,2]
 G  findWorstP[4,3]
 G  findWorstP[4,5]
 G  findWorstP[5,1]
 G  findWorstP[5,2]
 G  findWorstP[5,3]
 G  findWorstP[5,4]
COLUMNS
    z         OBJ       1
    z         findWorstP[1,2]  1
    z         findWorstP[1,3]  1
    z         findWorstP[1,4]  1
    z         findWorstP[1,5]  1
    z         findWorstP[2,1]  1
    z         findWorstP[2,3]  1
    z         findWorstP[2,4]  1
    z         findWorstP[2,5]  1
    z         findWorstP[3,1]  1
    z         findWorstP[3,2]  1
    z         findWorstP[3,4]  1
    z         findWorstP[3,5]  1
    z         findWorstP[4,1]  1
    z         findWorstP[4,2]  1
    z         findWorstP[4,3]  1
    z         findWorstP[4,5]  1
    z         findWorstP[5,1]  1
    z         findWorstP[5,2]  1
    z         findWorstP[5,3]  1
    z         findWorstP[5,4]  1
    cashProportion[1]  allocateAllCash  1
    cashProportion[1]  findWorstP[1,2]  2.6583018767611245e-02
    cashProportion[1]  findWorstP[1,3]  2.6583018767611245e-02
    cashProportion[1]  findWorstP[1,4]  2.6583018767611245e-02
    cashProportion[1]  findWorstP[1,5]  2.6583018767611245e-02
    cashProportion[1]  findWorstP[2,1]  -3.8449707782220857e-02
    cashProportion[1]  findWorstP[3,1]  -2.1920210434020173e-02
    cashProportion[1]  findWorstP[4,1]  -6.1697926949654494e-02
    cashProportion[1]  findWorstP[5,1]  -2.3286140089418782e-02
    cashProportion[2]  allocateAllCash  1
    cashProportion[2]  findWorstP[1,2]  -2.6583018767611245e-02
    cashProportion[2]  findWorstP[2,1]  3.8449707782220857e-02
    cashProportion[2]  findWorstP[2,3]  3.8449707782220857e-02
    cashProportion[2]  findWorstP[2,4]  3.8449707782220857e-02
    cashProportion[2]  findWorstP[2,5]  3.8449707782220857e-02
    cashProportion[2]  findWorstP[3,2]  -2.1920210434020173e-02
    cashProportion[2]  findWorstP[4,2]  -6.1697926949654494e-02
    cashProportion[2]  findWorstP[5,2]  -2.3286140089418782e-02
    cashProportion[3]  allocateAllCash  1
    cashProportion[3]  findWorstP[1,3]  -2.6583018767611245e-02
    cashProportion[3]  findWorstP[2,3]  -3.8449707782220857e-02
    cashProportion[3]  findWorstP[3,1]  2.1920210434020173e-02
    cashProportion[3]  findWorstP[3,2]  2.1920210434020173e-02
    cashProportion[3]  findWorstP[3,4]  2.1920210434020173e-02
    cashProportion[3]  findWorstP[3,5]  2.1920210434020173e-02
    cashProportion[3]  findWorstP[4,3]  -6.1697926949654494e-02
    cashProportion[3]  findWorstP[5,3]  -2.3286140089418782e-02
    cashProportion[4]  allocateAllCash  1
    cashProportion[4]  findWorstP[1,4]  -2.6583018767611245e-02
    cashProportion[4]  findWorstP[2,4]  -3.8449707782220857e-02
    cashProportion[4]  findWorstP[3,4]  -2.1920210434020173e-02
    cashProportion[4]  findWorstP[4,1]  6.1697926949654494e-02
    cashProportion[4]  findWorstP[4,2]  6.1697926949654494e-02
    cashProportion[4]  findWorstP[4,3]  6.1697926949654494e-02
    cashProportion[4]  findWorstP[4,5]  6.1697926949654494e-02
    cashProportion[4]  findWorstP[5,4]  -2.3286140089418782e-02
    cashProportion[5]  allocateAllCash  1
    cashProportion[5]  findWorstP[1,5]  -2.6583018767611245e-02
    cashProportion[5]  findWorstP[2,5]  -3.8449707782220857e-02
    cashProportion[5]  findWorstP[3,5]  -2.1920210434020173e-02
    cashProportion[5]  findWorstP[4,5]  -6.1697926949654494e-02
    cashProportion[5]  findWorstP[5,1]  2.3286140089418782e-02
    cashProportion[5]  findWorstP[5,2]  2.3286140089418782e-02
    cashProportion[5]  findWorstP[5,3]  2.3286140089418782e-02
    cashProportion[5]  findWorstP[5,4]  2.3286140089418782e-02
    MARKER    'MARKER'                 'INTORG'
    x[1,1]    allocateEach[1]  1
    x[1,1]    findWorstP[1,2]  4.0246690414163422e-01
    x[1,1]    findWorstP[1,3]  4.0246690414163422e-01
    x[1,1]    findWorstP[1,4]  4.0246690414163422e-01
    x[1,1]    findWorstP[1,5]  4.0246690414163422e-01
    x[1,1]    findWorstP[2,1]  -1.3880344509381728e-01
    x[1,1]    findWorstP[3,1]  -3.1003945637878133e-01
    x[1,1]    findWorstP[4,1]  -5.3134254689042448e-01
    x[1,1]    findWorstP[5,1]  -2.4725223546944863e-01
    x[1,2]    allocateEach[2]  1
    x[1,2]    findWorstP[1,2]  1.2254771651868784e-01
    x[1,2]    findWorstP[1,3]  1.2254771651868784e-01
    x[1,2]    findWorstP[1,4]  1.2254771651868784e-01
    x[1,2]    findWorstP[1,5]  1.2254771651868784e-01
    x[1,2]    findWorstP[2,1]  -2.8045216856351896e-01
    x[1,2]    findWorstP[3,1]  -0.241253836036826
    x[1,2]    findWorstP[4,1]  -2.1915103652517276e-01
    x[1,2]    findWorstP[5,1]  -3.9805327868852464e-01
    x[1,3]    allocateEach[3]  1
    x[1,3]    findWorstP[1,2]  4.4840236057206651e-01
    x[1,3]    findWorstP[1,3]  4.4840236057206651e-01
    x[1,3]    findWorstP[1,4]  4.4840236057206651e-01
    x[1,3]    findWorstP[1,5]  4.4840236057206651e-01
    x[1,3]    findWorstP[2,1]  -0.542294678560443
    x[1,3]    findWorstP[3,1]  -4.2678649715037276e-01
    x[1,3]    findWorstP[4,1]  -1.8780848963474828e-01
    x[1,3]    findWorstP[5,1]  -3.3140834575260808e-01
    x[2,1]    allocateEach[1]  1
    x[2,1]    findWorstP[1,2]  -4.0246690414163422e-01
    x[2,1]    findWorstP[2,1]  1.3880344509381728e-01
    x[2,1]    findWorstP[2,3]  1.3880344509381728e-01
    x[2,1]    findWorstP[2,4]  1.3880344509381728e-01
    x[2,1]    findWorstP[2,5]  1.3880344509381728e-01
    x[2,1]    findWorstP[3,2]  -3.1003945637878133e-01
    x[2,1]    findWorstP[4,2]  -5.3134254689042448e-01
    x[2,1]    findWorstP[5,2]  -2.4725223546944863e-01
    x[2,2]    allocateEach[2]  1
    x[2,2]    findWorstP[1,2]  -1.2254771651868784e-01
    x[2,2]    findWorstP[2,1]  2.8045216856351896e-01
    x[2,2]    findWorstP[2,3]  2.8045216856351896e-01
    x[2,2]    findWorstP[2,4]  2.8045216856351896e-01
    x[2,2]    findWorstP[2,5]  2.8045216856351896e-01
    x[2,2]    findWorstP[3,2]  -0.241253836036826
    x[2,2]    findWorstP[4,2]  -2.1915103652517276e-01
    x[2,2]    findWorstP[5,2]  -3.9805327868852464e-01
    x[2,3]    allocateEach[3]  1
    x[2,3]    findWorstP[1,2]  -4.4840236057206651e-01
    x[2,3]    findWorstP[2,1]  0.542294678560443
    x[2,3]    findWorstP[2,3]  0.542294678560443
    x[2,3]    findWorstP[2,4]  0.542294678560443
    x[2,3]    findWorstP[2,5]  0.542294678560443
    x[2,3]    findWorstP[3,2]  -4.2678649715037276e-01
    x[2,3]    findWorstP[4,2]  -1.8780848963474828e-01
    x[2,3]    findWorstP[5,2]  -3.3140834575260808e-01
    x[3,1]    allocateEach[1]  1
    x[3,1]    findWorstP[1,3]  -4.0246690414163422e-01
    x[3,1]    findWorstP[2,3]  -1.3880344509381728e-01
    x[3,1]    findWorstP[3,1]  3.1003945637878133e-01
    x[3,1]    findWorstP[3,2]  3.1003945637878133e-01
    x[3,1]    findWorstP[3,4]  3.1003945637878133e-01
    x[3,1]    findWorstP[3,5]  3.1003945637878133e-01
    x[3,1]    findWorstP[4,3]  -5.3134254689042448e-01
    x[3,1]    findWorstP[5,3]  -2.4725223546944863e-01
    x[3,2]    allocateEach[2]  1
    x[3,2]    findWorstP[1,3]  -1.2254771651868784e-01
    x[3,2]    findWorstP[2,3]  -2.8045216856351896e-01
    x[3,2]    findWorstP[3,1]  0.241253836036826
    x[3,2]    findWorstP[3,2]  0.241253836036826
    x[3,2]    findWorstP[3,4]  0.241253836036826
    x[3,2]    findWorstP[3,5]  0.241253836036826
    x[3,2]    findWorstP[4,3]  -2.1915103652517276e-01
    x[3,2]    findWorstP[5,3]  -3.9805327868852464e-01
    x[3,3]    allocateEach[3]  1
    x[3,3]    findWorstP[1,3]  -4.4840236057206651e-01
    x[3,3]    findWorstP[2,3]  -0.542294678560443
    x[3,3]    findWorstP[3,1]  4.2678649715037276e-01
    x[3,3]    findWorstP[3,2]  4.2678649715037276e-01
    x[3,3]    findWorstP[3,4]  4.2678649715037276e-01
    x[3,3]    findWorstP[3,5]  4.2678649715037276e-01
    x[3,3]    findWorstP[4,3]  -1.8780848963474828e-01
    x[3,3]    findWorstP[5,3]  -3.3140834575260808e-01
    x[4,1]    allocateEach[1]  1
    x[4,1]    findWorstP[1,4]  -4.0246690414163422e-01
    x[4,1]    findWorstP[2,4]  -1.3880344509381728e-01
    x[4,1]    findWorstP[3,4]  -3.1003945637878133e-01
    x[4,1]    findWorstP[4,1]  5.3134254689042448e-01
    x[4,1]    findWorstP[4,2]  5.3134254689042448e-01
    x[4,1]    findWorstP[4,3]  5.3134254689042448e-01
    x[4,1]    findWorstP[4,5]  5.3134254689042448e-01
    x[4,1]    findWorstP[5,4]  -2.4725223546944863e-01
    x[4,2]    allocateEach[2]  1
    x[4,2]    findWorstP[1,4]  -1.2254771651868784e-01
    x[4,2]    findWorstP[2,4]  -2.8045216856351896e-01
    x[4,2]    findWorstP[3,4]  -0.241253836036826
    x[4,2]    findWorstP[4,1]  2.1915103652517276e-01
    x[4,2]    findWorstP[4,2]  2.1915103652517276e-01
    x[4,2]    findWorstP[4,3]  2.1915103652517276e-01
    x[4,2]    findWorstP[4,5]  2.1915103652517276e-01
    x[4,2]    findWorstP[5,4]  -3.9805327868852464e-01
    x[4,3]    allocateEach[3]  1
    x[4,3]    findWorstP[1,4]  -4.4840236057206651e-01
    x[4,3]    findWorstP[2,4]  -0.542294678560443
    x[4,3]    findWorstP[3,4]  -4.2678649715037276e-01
    x[4,3]    findWorstP[4,1]  1.8780848963474828e-01
    x[4,3]    findWorstP[4,2]  1.8780848963474828e-01
    x[4,3]    findWorstP[4,3]  1.8780848963474828e-01
    x[4,3]    findWorstP[4,5]  1.8780848963474828e-01
    x[4,3]    findWorstP[5,4]  -3.3140834575260808e-01
    x[5,1]    allocateEach[1]  1
    x[5,1]    findWorstP[1,5]  -4.0246690414163422e-01
    x[5,1]    findWorstP[2,5]  -1.3880344509381728e-01
    x[5,1]    findWorstP[3,5]  -3.1003945637878133e-01
    x[5,1]    findWorstP[4,5]  -5.3134254689042448e-01
    x[5,1]    findWorstP[5,1]  2.4725223546944863e-01
    x[5,1]    findWorstP[5,2]  2.4725223546944863e-01
    x[5,1]    findWorstP[5,3]  2.4725223546944863e-01
    x[5,1]    findWorstP[5,4]  2.4725223546944863e-01
    x[5,2]    allocateEach[2]  1
    x[5,2]    findWorstP[1,5]  -1.2254771651868784e-01
    x[5,2]    findWorstP[2,5]  -2.8045216856351896e-01
    x[5,2]    findWorstP[3,5]  -0.241253836036826
    x[5,2]    findWorstP[4,5]  -2.1915103652517276e-01
    x[5,2]    findWorstP[5,1]  3.9805327868852464e-01
    x[5,2]    findWorstP[5,2]  3.9805327868852464e-01
    x[5,2]    findWorstP[5,3]  3.9805327868852464e-01
    x[5,2]    findWorstP[5,4]  3.9805327868852464e-01
    x[5,3]    allocateEach[3]  1
    x[5,3]    findWorstP[1,5]  -4.4840236057206651e-01
    x[5,3]    findWorstP[2,5]  -0.542294678560443
    x[5,3]    findWorstP[3,5]  -4.2678649715037276e-01
    x[5,3]    findWorstP[4,5]  -1.8780848963474828e-01
    x[5,3]    findWorstP[5,1]  3.3140834575260808e-01
    x[5,3]    findWorstP[5,2]  3.3140834575260808e-01
    x[5,3]    findWorstP[5,3]  3.3140834575260808e-01
    x[5,3]    findWorstP[5,4]  3.3140834575260808e-01
    MARKER    'MARKER'                 'INTEND'
RHS
    RHS1      allocateEach[1]  1
    RHS1      allocateEach[2]  1
    RHS1      allocateEach[3]  1
    RHS1      allocateAllCash  1
BOUNDS
 UP BND1      z         1
 MI BND1      cashProportion[1]
 UP BND1      cashProportion[1]  1
 MI BND1      cashProportion[2]
 UP BND1      cashProportion[2]  1
 MI BND1      cashProportion[3]
 UP BND1      cashProportion[3]  1
 MI BND1      cashProportion[4]
 UP BND1      cashProportion[4]  1
 MI BND1      cashProportion[5]
 UP BND1      cashProportion[5]  1
 BV BND1      x[1,1]  
 BV BND1      x[1,2]  
 BV BND1      x[1,3]  
 BV BND1      x[2,1]  
 BV BND1      x[2,2]  
 BV BND1      x[2,3]  
 BV BND1      x[3,1]  
 BV BND1      x[3,2]  
 BV BND1      x[3,3]  
 BV BND1      x[4,1]  
 BV BND1      x[4,2]  
 BV BND1      x[4,3]  
 BV BND1      x[5,1]  
 BV BND1      x[5,2]  
 BV BND1      x[5,3]  
ENDATA
